benchmark_num_str/p1_5_10-2.dzn
Alphabet = {A,C,G,T};
ns = 5;
nc = 10;
sl = 10;
neighbours = [| I(C),I(G),I(A),I(G),I(G),I(C),I(A),I(A),I(C),I(A) | I(A),I(C),I(G),I(A),I(C),I(A),I(A),I(A),I(A),I(A) | I(A),I(A),I(A),I(C),I(A),I(A),I(G),I(A),I(C),I(A) | I(A),I(G),I(A),I(A),I(A),I(C),I(C),I(A),I(A),I(A) | I(A),I(A),I(G),I(A),I(A),I(A),I(A),I(A),I(C),I(C) |];
