benchmark_num_str/p1_5_10-2.txt
{
	"num_strings": 5,
	"alphabet": "ACGT",
	"strings": [
		"CGAGGCAACA",
		"ACGACAAAAA",
		"AAACAAGACA",
		"AGAAACCAAA",
		"AAGAAAAACC"
	],
	"str_length":[10,10,10,10,10]
}